
  32    4
  10   10   10   10

   0   0   0   0   0   2 2 31 
   3   0   1   1   1   1 3 
   4   1   0   1   6   2 30 4 
  10   4   2   2   0   1 5 
  10   0   3   3   1   1 6 
   9   0   2   3   3   1 7 
   4   6   0   5   3   1 8 
   4   0   4   1   5   1 9 
   5   4   0   3   5   1 10 
   5   4   0   1   4   1 11 
   9   5   0   6   3   1 12 
   3   0   7   4   3   1 13 
  10   6   3   5   0   2 29 14 
   8   2   0   3   6   1 15 
   4   2   0   5   4   1 16 
   5   0   7   4   8   1 17 
   9   0   7   3   4   1 18 
   9   4   0   3   5   1 19 
   5   3   0   9   3   1 20 
  10   6   4   0   6   1 21 
   3   4   0   8   4   1 22 
   3   0   3   2   3   1 23 
   1   0   7   6   3   1 24 
   2   2   0   4   3   1 25 
   3   3   5   3   0   1 26 
   4   7   0   7   5   1 27 
   9   6   0   6   4   1 28 
   6   5   0   7   5   1 32
  10   4   0   5   4   1 32
  10   0   4   2   5   1 32
  10   2   1   0   2   1 32
   0   0   0   0   0   0 
